p cnf 254 475
e 1 2 3 4 5 6 7 8 9 10 11 12 13 14 15 16 17 18 19 20 21 22 23 24 25 26 27 28 29 30 31 32 33 34 35 36 37 38 39 40 41 42 43 44 45 46 47 48 49 50 51 52 53 54 55 56 57 58 59 60 61 62 63 64 65 66 67 68 69 70 71 72 73 74 75 76 77 78 79 80 81 82 83 84 85 86 87 88 89 90 91 92 93 94 95 96 97 98 99 100 101 102 103 104 105 106 107 108 109 110 111 112 113 114 115 116 117 118 119 120 121 122 123 124 125 126 127 128 129 130 131 132 133 134 135 136 137 138 139 140 141 142 143 144 145 146 147 148 149 150 151 152 153 154 155 156 157 158 159 160 161 162 163 164 165 166 167 168 169 170 171 172 173 174 175 176 177 178 179 180 181 182 183 184 185 186 187 188 189 190 191 192 193 194 195 196 197 198 199 200 201 202 203 204 205 206 207 208 209 210 211 212 213 214 215 216 217 218 219 220 221 222 223 224 225 226 227 228 229 230 231 232 233 234 235 236 237 238 239 240 241 242 243 244 245 246 247 248 249 250 251 252 253 254 0
-172 0
-98 0
-213 0
-20 0
-12 0
-137 0
168 0
-6 0
-7 0
-16 0
-55 0
-131 0
165 0
-254 0
-43 0
159 0
-201 0
-198 0
-64 0
-149 0
-53 0
-21 0
216 0
-54 0
-200 0
-199 0
160 0
-26 0
-35 0
-13 0
-30 0
-31 0
-46 0
164 0
-211 0
-14 0
-47 0
-4 0
-33 0
-45 0
-134 0
-23 0
-61 0
-107 0
-125 0
-32 0
-3 0
-15 0
-57 0
157 0
167 0
-49 0
-205 0
-8 0
-50 0
-122 0
-143 0
155 0
-203 0
-59 0
-95 0
169 0
-210 0
-41 0
-44 0
-19 0
-92 0
-101 0
-24 0
-42 0
-207 0
-63 0
-113 0
-204 0
-18 0
-34 0
-37 0
-110 0
-140 0
-28 0
-52 0
163 0
-214 0
-11 0
-56 0
-146 0
-194 0
153 0
150 0
-17 0
-48 0
151 0
-89 0
158 0
-215 0
-40 0
-119 0
171 0
-29 0
-10 0
-104 0
-195 0
161 0
1 0
-39 0
-25 0
-2 0
-5 0
-62 0
-22 0
166 0
-38 0
-128 0
-212 0
-196 0
-27 0
154 0
162 0
-202 0
-197 0
-51 0
-116 0
-9 0
-36 0
-58 0
-60 0
152 0
-208 0
156 0
170 0
-209 0
-206 0
-87 88 0
87 -88 0
-90 91 0
90 -91 0
-93 94 0
93 -94 0
-96 97 0
96 -97 0
-99 100 0
99 -100 0
-102 103 0
102 -103 0
-105 106 0
105 -106 0
-108 109 0
108 -109 0
-111 112 0
111 -112 0
-114 115 0
114 -115 0
-117 118 0
117 -118 0
-120 121 0
120 -121 0
-123 124 0
123 -124 0
-126 127 0
126 -127 0
-129 130 0
129 -130 0
-132 133 0
132 -133 0
-135 136 0
135 -136 0
-138 139 0
138 -139 0
-141 142 0
141 -142 0
-144 145 0
144 -145 0
-147 148 0
147 -148 0
65 -88 0
65 -91 0
65 -94 0
65 -97 0
65 -100 0
65 -103 0
65 -106 0
65 -109 0
65 -112 0
65 -115 0
65 -118 0
65 -121 0
65 -124 0
65 -127 0
65 -130 0
65 -133 0
65 -136 0
65 -139 0
65 -142 0
65 -145 0
65 -148 0
66 -88 0
67 -91 0
68 -94 0
69 -97 0
70 -100 0
71 -103 0
72 -106 0
73 -109 0
74 -112 0
75 -115 0
76 -118 0
77 -121 0
78 -124 0
79 -127 0
80 -130 0
81 -133 0
82 -136 0
83 -139 0
84 -142 0
85 -145 0
86 -148 0
217 -88 -91 0
-217 88 0
-217 91 0
218 -100 -103 -106 0
-218 100 0
-218 103 0
-218 106 0
219 -118 -121 -124 0
-219 118 0
-219 121 0
-219 124 0
220 -127 -130 -133 0
-220 127 0
-220 130 0
-220 133 0
221 -136 -139 -142 0
-221 136 0
-221 139 0
-221 142 0
222 -145 -148 0
-222 145 0
-222 148 0
223 -94 -100 0
-223 94 0
-223 100 0
224 -127 -136 -145 0
-224 127 0
-224 136 0
-224 145 0
225 -88 -97 -103 0
-225 88 0
-225 97 0
-225 103 0
226 -109 -115 -121 0
-226 109 0
-226 115 0
-226 121 0
227 -130 -139 -148 0
-227 130 0
-227 139 0
-227 148 0
228 -133 -142 0
-228 133 0
-228 142 0
229 -97 -106 0
-229 97 0
-229 106 0
230 -127 -139 0
-230 127 0
-230 139 0
231 -91 -97 -100 0
-231 91 0
-231 97 0
-231 100 0
232 -115 -118 0
-232 115 0
-232 118 0
233 -133 -139 -118 0
-233 133 0
-233 139 0
-233 118 0
234 -88 -109 -130 0
-234 88 0
-234 109 0
-234 130 0
235 -91 -133 0
-235 91 0
-235 133 0
236 -94 -112 -136 0
-236 94 0
-236 112 0
-236 136 0
237 -97 -115 -139 0
-237 97 0
-237 115 0
-237 139 0
238 -100 -118 -145 0
-238 100 0
-238 118 0
-238 145 0
239 -103 -121 -148 0
-239 103 0
-239 121 0
-239 148 0
240 -106 -124 0
-240 106 0
-240 124 0
241 -112 -145 0
-241 112 0
-241 145 0
242 -88 -115 -148 0
-242 88 0
-242 115 0
-242 148 0
243 -100 -112 -127 0
-243 100 0
-243 112 0
-243 127 0
244 -103 -115 -130 0
-244 103 0
-244 115 0
-244 130 0
245 -109 -133 0
-245 109 0
-245 133 0
246 -94 -115 -142 0
-246 94 0
-246 115 0
-246 142 0
247 -100 -121 0
-247 100 0
-247 121 0
248 -91 -109 -127 0
-248 91 0
-248 109 0
-248 127 0
249 -106 -121 -145 0
-249 106 0
-249 121 0
-249 145 0
250 -115 0
-250 115 0
251 -91 -115 0
-251 91 0
-251 115 0
252 -100 -115 -133 0
-252 100 0
-252 115 0
-252 133 0
253 -106 -115 -127 0
-253 106 0
-253 115 0
-253 127 0
217 218 219 220 221 222 223 224 225 226 227 228 229 230 231 232 233 234 235 236 237 238 239 240 241 242 243 244 245 246 247 248 249 250 251 252 253 0
-66 173 0
66 -173 0
-67 174 0
-173 174 0
67 -174 173 0
-67 -173 0
-68 175 0
-174 175 0
68 -175 174 0
-68 -174 0
-69 176 0
-175 176 0
69 -176 175 0
-69 -175 0
-70 177 0
-176 177 0
70 -177 176 0
-70 -176 0
-71 178 0
-177 178 0
71 -178 177 0
-71 -177 0
-72 179 0
-178 179 0
72 -179 178 0
-72 -178 0
-73 180 0
-179 180 0
73 -180 179 0
-73 -179 0
-74 181 0
-180 181 0
74 -181 180 0
-74 -180 0
-75 182 0
-181 182 0
75 -182 181 0
-75 -181 0
-76 183 0
-182 183 0
76 -183 182 0
-76 -182 0
-77 184 0
-183 184 0
77 -184 183 0
-77 -183 0
-78 185 0
-184 185 0
78 -185 184 0
-78 -184 0
-79 186 0
-185 186 0
79 -186 185 0
-79 -185 0
-80 187 0
-186 187 0
80 -187 186 0
-80 -186 0
-81 188 0
-187 188 0
81 -188 187 0
-81 -187 0
-82 189 0
-188 189 0
82 -189 188 0
-82 -188 0
-83 190 0
-189 190 0
83 -190 189 0
-83 -189 0
-84 191 0
-190 191 0
84 -191 190 0
-84 -190 0
-85 192 0
-191 192 0
85 -192 191 0
-85 -191 0
-86 193 0
-192 193 0
86 -193 192 0
-86 -192 0
-65 193 0
-66 88 0
-66 65 0
-67 91 0
-67 65 0
-68 94 0
-68 65 0
-69 97 0
-69 65 0
-70 100 0
-70 65 0
-71 103 0
-71 65 0
-72 106 0
-72 65 0
-73 109 0
-73 65 0
-74 112 0
-74 65 0
-75 115 0
-75 65 0
-76 118 0
-76 65 0
-77 121 0
-77 65 0
-78 124 0
-78 65 0
-79 127 0
-79 65 0
-80 130 0
-80 65 0
-81 133 0
-81 65 0
-82 136 0
-82 65 0
-83 139 0
-83 65 0
-84 142 0
-84 65 0
-85 145 0
-85 65 0
-86 148 0
-86 65 0
